c pcminimize - minimizing a CNF with respect to propagation completeness by iterative removing of absorbed clauses.
c Petr Kucera, 2016-2021
c Version 2.7, revision 59, git hash 4910a71, date 2024-07-16 20:17:42 +0200
p cnf 413 688
-146 -251 0
228 -251 0
252 -253 0
-228 -253 0
251 253 -254 0
138 -255 0
163 -255 0
-220 -255 0
254 -257 0
255 -257 0
256 -257 0
257 -259 0
258 -259 0
259 -260 0
200 -260 0
-146 -261 0
261 -262 0
228 -262 0
252 -264 0
263 -264 0
264 -265 0
-228 -265 0
262 265 -266 0
266 -268 0
125 -268 0
267 -268 0
268 -269 0
220 -269 0
138 -270 0
163 -270 0
254 -271 0
270 -271 0
256 -271 0
271 -272 0
-220 -272 0
269 272 -273 0
273 -274 0
-75 -274 0
274 -275 0
-200 -275 0
260 275 -276 0
21 -277 0
45 -277 0
56 -277 0
-112 -277 0
-113 -277 0
-145 -277 0
-149 -277 0
-167 -277 0
177 -277 0
278 -284 0
279 -284 0
280 -284 0
281 -284 0
282 -284 0
283 -284 0
276 -285 0
284 -285 0
-206 -291 0
175 -294 0
21 -295 0
45 -295 0
56 -295 0
-112 -295 0
-113 -295 0
-145 -295 0
-149 -295 0
-167 -295 0
177 -295 0
-206 -295 0
282 -296 0
279 -296 0
281 -296 0
276 -297 0
295 -297 0
296 -297 0
297 -298 0
283 -298 0
298 -299 0
221 -299 0
-75 -300 0
125 -300 0
-200 -300 0
266 -301 0
300 -301 0
301 -302 0
220 -302 0
258 -303 0
200 -303 0
-75 -304 0
-200 -304 0
303 304 -305 0
254 -306 0
305 -306 0
163 -306 0
306 -307 0
256 -307 0
307 -308 0
-220 -308 0
302 308 -309 0
149 -310 0
113 -310 0
311 -312 0
-113 -312 0
310 312 -313 0
313 -314 0
143 -314 0
-113 -315 0
-149 -315 0
315 -316 0
-143 -316 0
314 316 -317 0
-177 -318 0
96 -318 0
319 -320 0
-96 -320 0
318 320 -321 0
322 -323 0
65 -323 0
21 -324 0
-65 -324 0
323 324 -325 0
-56 -326 0
138 -326 0
-145 -326 0
167 -326 0
-206 -326 0
309 -327 0
317 -327 0
321 -327 0
325 -327 0
326 -327 0
327 -328 0
112 -328 0
138 -330 0
329 -330 0
330 -331 0
167 -331 0
56 -332 0
267 -332 0
332 -333 0
-167 -333 0
331 333 -334 0
266 -335 0
334 -335 0
300 -335 0
335 -336 0
220 -336 0
329 -337 0
167 -337 0
56 -338 0
-167 -338 0
337 338 -339 0
254 -340 0
339 -340 0
305 -340 0
270 -340 0
256 -340 0
340 -341 0
-220 -341 0
336 341 -342 0
-143 -344 0
343 -344 0
344 -345 0
145 -345 0
279 -346 0
346 -347 0
-145 -347 0
345 347 -348 0
348 -349 0
-65 -349 0
349 -351 0
350 -351 0
351 -352 0
206 -352 0
-113 -353 0
-145 -353 0
353 -354 0
279 -354 0
354 -355 0
281 -355 0
355 -356 0
-206 -356 0
352 356 -357 0
21 -358 0
-149 -358 0
177 -358 0
342 -359 0
357 -359 0
358 -359 0
359 -360 0
-112 -360 0
328 360 -361 0
361 -362 0
45 -362 0
362 -363 0
282 -363 0
363 -364 0
76 -364 0
322 -366 0
365 -366 0
366 -367 0
65 -367 0
21 -368 0
45 -368 0
368 -369 0
-65 -369 0
367 369 -370 0
309 -371 0
317 -371 0
321 -371 0
370 -371 0
326 -371 0
371 -372 0
112 -372 0
45 -373 0
-65 -373 0
348 -374 0
373 -374 0
374 -375 0
350 -375 0
375 -376 0
206 -376 0
365 -377 0
65 -377 0
45 -378 0
-65 -378 0
377 378 -379 0
379 -380 0
353 -380 0
279 -380 0
380 -381 0
-206 -381 0
376 381 -382 0
342 -383 0
382 -383 0
358 -383 0
383 -384 0
-112 -384 0
372 384 -385 0
385 -386 0
-27 -386 0
386 -387 0
-76 -387 0
364 387 -388 0
388 -389 0
-185 -389 0
389 -390 0
-221 -390 0
278 -393 0
280 -393 0
391 -394 0
393 -394 0
-175 -403 0
404 -405 0
1 0
-2 0
-3 0
4 0
-5 0
-6 0
7 0
-8 0
9 0
10 0
-11 0
-12 0
-13 0
-14 0
-15 0
16 0
17 0
-18 0
19 0
20 0
22 0
23 0
-24 0
-25 0
26 0
-28 0
29 0
30 0
31 0
-32 0
33 0
-34 0
35 0
-36 0
37 0
-38 0
39 0
-40 0
41 0
42 0
-43 0
44 0
-46 0
-47 0
48 0
-49 0
50 0
51 0
52 0
53 0
54 0
55 0
57 0
-58 0
-59 0
-60 0
-61 0
-62 0
-63 0
64 0
-66 0
-68 0
-69 0
-70 0
71 0
-72 0
-73 0
74 0
-77 0
78 0
-79 0
80 0
-81 0
82 0
-83 0
84 0
-85 0
-86 0
87 0
-88 0
-89 0
-90 0
-91 0
-92 0
93 0
94 0
95 0
-97 0
-98 0
99 0
100 0
-101 0
102 0
-103 0
104 0
-105 0
-106 0
-107 0
108 0
109 0
110 0
-111 0
114 0
115 0
116 0
117 0
118 0
119 0
-120 0
-121 0
122 0
-123 0
124 0
126 0
128 0
129 0
130 0
-131 0
-132 0
-133 0
-134 0
-135 0
-136 0
137 0
-139 0
140 0
141 0
-142 0
-144 0
-147 0
148 0
-150 0
151 0
152 0
-153 0
-154 0
155 0
156 0
-157 0
158 0
-159 0
-160 0
-161 0
-162 0
-164 0
-165 0
166 0
-168 0
169 0
170 0
-171 0
172 0
173 0
174 0
176 0
178 0
179 0
180 0
-181 0
182 0
-183 0
-184 0
-186 0
-187 0
-188 0
-189 0
190 0
-191 0
-192 0
-193 0
194 0
195 0
196 0
197 0
198 0
-199 0
201 0
-202 0
-203 0
-204 0
-205 0
-207 0
-208 0
-209 0
-210 0
-211 0
212 0
-213 0
-214 0
215 0
216 0
217 0
218 0
-219 0
-222 0
-223 0
-225 0
-226 0
-227 0
-229 0
-230 0
-231 0
232 0
233 0
-234 0
-235 0
236 0
-237 0
-238 0
239 0
240 0
-241 0
-242 0
-243 0
244 0
-245 0
246 0
-247 0
-248 0
249 0
250 0
-412 413 0
-408 409 0
-406 408 0
-402 403 0
-399 400 0
-394 395 0
-392 394 0
-391 394 0
-387 388 0
-385 386 0
-382 383 0
-373 374 0
-371 372 0
-370 371 0
-369 370 0
-368 369 0
-367 370 0
-365 366 377 0
-364 388 0
-361 362 0
-360 361 0
-359 360 0
-357 359 0
-354 355 0
-353 354 380 0
-351 352 0
-350 351 375 0
-349 351 0
-347 348 0
-346 347 0
-345 348 0
-145 345 0
-342 359 383 0
-338 339 0
-337 339 0
-336 342 0
-334 335 0
-331 334 0
-326 327 371 0
-167 326 331 337 0
-325 327 0
-324 325 0
-323 325 0
-321 327 371 0
-318 321 0
-96 318 0
-372 385 0
177 318 319 0
-317 327 371 0
-315 316 0
-311 312 0
-389 390 0
-149 310 311 0
-309 327 371 0
-375 376 0
-307 308 0
-380 381 0
-306 307 0
-377 379 0
-303 305 0
-301 302 0
-300 301 335 0
-299 391 0
-298 299 0
-296 297 0
-295 297 0
-292 293 0
-291 292 0
76 387 0
-310 313 0
-290 292 0
-409 410 0
-288 289 0
-287 288 0
-320 321 0
-195 287 399 0
221 390 0
-286 288 0
96 277 295 320 358 0
-270 271 340 0
-314 317 0
-344 345 0
185 283 389 0
-327 328 0
-374 375 0
-384 385 0
-182 405 0
-273 274 0
67 278 0
-266 268 301 335 0
-185 283 0
-283 284 298 0
-356 357 0
-45 277 295 362 365 368 373 378 0
-274 275 0
-363 364 0
-379 380 0
-305 306 340 0
-56 277 295 329 332 338 0
-267 268 332 0
-200 260 303 0
-228 251 262 0
56 326 329 0
-257 259 0
-332 333 0
-397 398 0
-358 359 383 0
-272 273 0
-263 264 0
-261 262 0
163 263 0
-312 313 0
-252 253 264 0
-260 276 0
-405 406 0
228 253 265 0
-410 411 0
167 277 295 333 338 0
-75 258 0
-381 382 0
-262 266 0
-400 401 0
-224 280 0
-396 397 0
-258 259 303 0
-256 257 271 307 340 0
-388 389 0
146 251 252 261 0
-393 394 0
-125 256 268 300 0
-259 260 0
-251 254 0
-146 252 0
125 256 0
-308 309 0
75 258 274 300 304 0
-138 255 267 270 326 330 0
38 412 0
-264 265 0
-113 310 350 0
-297 298 0
138 267 0
-329 330 337 0
-271 272 0
-319 320 0
-268 269 0
-355 356 0
-269 273 0
-276 285 297 0
-255 257 0
-398 400 0
27 282 386 0
-376 382 0
-302 309 0
45 365 0
-339 340 0
220 255 272 308 341 0
-316 317 0
-21 277 295 322 324 358 368 0
-352 357 0
-362 363 0
200 275 300 304 0
-282 284 296 363 0
-366 367 0
21 322 0
112 277 295 360 384 0
-206 352 376 0
113 277 295 312 315 350 353 0
206 291 295 326 356 381 0
-378 379 0
-304 305 0
-395 397 0
-127 343 0
-16 407 0
-335 336 0
-220 269 302 336 0
-333 334 0
-383 384 0
-386 387 0
-253 254 0
145 277 295 326 347 353 0
-275 276 0
-289 290 0
-401 402 0
-65 281 323 367 377 0
-330 331 0
-390 391 0
-343 344 0
-348 349 374 0
-112 328 372 0
-340 341 0
-313 314 0
-254 257 271 306 340 0
-250 277 396 0
-277 285 0
-322 323 366 0
-265 266 0
-143 279 314 0
-293 294 0
-67 278 0
143 279 316 344 0
-279 284 296 346 354 380 0
224 280 0
65 281 324 349 369 373 378 0
-281 284 296 355 0
-341 342 0
-27 282 0
-284 285 0
8 291 398 0
-285 286 0
-328 361 0
-198 277 392 0
